(declare-const main__tagbuf_len Int)
(declare-const __VERIFIER_assert__cond___16 Int)
(declare-const term_to_project_onto2 Real)
(declare-const term_to_project_onto4 Real)
(declare-const main__t Int)
(declare-const |main__t'| Int)
(declare-const term_to_project_onto Real)
(declare-const havoc Int)
(declare-const term_to_project_onto0 Real)
(declare-const main____CPAchecker_TMP_0 Int)
(declare-const |__VERIFIER_assert__cond___16'| Int)
(declare-const |__VERIFIER_assert__cond___15'| Int)
(declare-const __tmp_383_0 Int)
(declare-const |main____CPAchecker_TMP_0'| Int)
(declare-const term_to_project_onto3 Real)
(declare-const term_to_project_onto1 Real)
(declare-const |__tmp_383_0'| Int)
(declare-const main____CPAchecker_TMP_0___0 Int)
(declare-const __VERIFIER_assert__cond___15 Int)
(declare-const |main____CPAchecker_TMP_0___0'| Int)
(assert (and (= __tmp_383_0 0) (= main____CPAchecker_TMP_0 0)
               (<= (- main__t) 0) (<= (+ (- main__tagbuf_len) 1) 0)
               (= main____CPAchecker_TMP_0 0) (= __tmp_383_0 0)
               (or (<= (+ (- main__tagbuf_len) main__t 2) 0)
                     (<= (+ main__tagbuf_len (- main__t)) 0)) (= havoc 0)
               (or (<= (+ (ite (<= (+ (- main__t) -1) 0) 1 0) 1) 0)
                     (<= (+ (- (ite (<= (+ (- main__t) -1) 0) 1 0)) 1) 0))
               (or (<= (+ (ite (<= (+ (- main__tagbuf_len) main__t 1) 0) 1 0)
                            1) 0)
                     (<= (+ (- (ite (<= (+ (- main__tagbuf_len) main__t 1) 0)
                                    1 0)) 1) 0))
               (= (+ |__VERIFIER_assert__cond___16'|
                       (- (ite (<= (+ (- main__tagbuf_len) main__t 1) 0) 1 0))) 0)
               (= (+ |__VERIFIER_assert__cond___15'|
                       (- (ite (<= (+ (- main__t) -1) 0) 1 0))) 0)
               (= (+ |main____CPAchecker_TMP_0___0'| (- havoc)) 0)
               (= (+ |main____CPAchecker_TMP_0'| (- __tmp_383_0)) 0)
               (= (+ |main__t'| (- main__t) -1) 0)
               (= (+ |__tmp_383_0'| (- havoc)) 0)
               (= term_to_project_onto4 (+ |__tmp_383_0'| (- __tmp_383_0)))
               (= term_to_project_onto3 (+ |main__t'| (- main__t)))
               (= term_to_project_onto2 (+ |main____CPAchecker_TMP_0'|
                                             (- main____CPAchecker_TMP_0)))
               (= term_to_project_onto1 (+ |main____CPAchecker_TMP_0___0'|
                                             (- main____CPAchecker_TMP_0___0)))
               (= term_to_project_onto0 (+ |__VERIFIER_assert__cond___15'|
                                             (- __VERIFIER_assert__cond___15)))
               (= term_to_project_onto (+ |__VERIFIER_assert__cond___16'|
                                            (- __VERIFIER_assert__cond___16)))))
(check-sat)
